minimize
obj: 1 x_1_ + 1 x_2_ + 1 x_3_ + 1 x_4_ + 1 x_5_ + 1 x_6_ + 1 x_7_ + 1 x_8_ + 1 x_9_ + 1 x_10_
subject to
c1_1: 1 t_1,1_ - 1 y_1,1_ <= 0
c2_1: 1 t_1,2_ - 1 y_1,1_ - 1 y_1,2_ <= 0
c3_1: 1 t_1,3_ - 1 y_1,2_ - 1 y_1,3_ <= 0
c4_1: 1 t_1,4_ - 1 y_1,3_ - 1 y_1,4_ <= 0
c5_1: 1 t_1,5_ - 1 y_1,4_ - 1 y_1,5_ <= 0
c6_1: 1 t_1,6_ - 1 y_1,5_ - 1 y_1,6_ <= 0
c7_1: 1 t_1,7_ - 1 y_1,6_ - 1 y_1,7_ <= 0
c8_1: 1 t_1,8_ - 1 y_1,7_ - 1 y_1,8_ <= 0
c9_1: 1 t_1,9_ - 1 y_1,8_ - 1 y_1,9_ <= 0
c10_1: 1 t_1,10_ - 1 y_1,9_ - 1 y_1,10_ <= 0
c11_1: 1 t_1,11_ - 1 y_1,10_ - 1 y_1,11_ <= 0
c12_1: 1 t_1,12_ - 1 y_1,11_ - 1 y_1,12_ <= 0
c13_1: 1 t_1,13_ - 1 y_1,12_ - 1 y_1,13_ <= 0
c14_1: 1 t_1,14_ - 1 y_1,13_ - 1 y_1,14_ <= 0
c15_1: 1 t_1,15_ - 1 y_1,14_ - 1 y_1,15_ <= 0
c16_1: 1 t_1,16_ - 1 y_1,15_ - 1 y_1,16_ <= 0
c17_1: 1 t_1,17_ - 1 y_1,16_ - 1 y_1,17_ <= 0
c18_1: 1 t_1,18_ - 1 y_1,17_ - 1 y_1,18_ <= 0
c19_1: 1 t_1,19_ - 1 y_1,18_ - 1 y_1,19_ <= 0
c20_1: 1 t_1,20_ - 1 y_1,19_ - 1 y_1,20_ <= 0
c21_1: 1 t_1,21_ - 1 y_1,20_ - 1 y_1,21_ <= 0
c22_1: 1 t_1,22_ - 1 y_1,21_ - 1 y_1,22_ <= 0
c23_1: 1 t_1,23_ - 1 y_1,22_ - 1 y_1,23_ <= 0
c24_1: 1 t_1,24_ - 1 y_1,23_ - 1 y_1,24_ <= 0
c25_1: 1 t_1,25_ - 1 y_1,24_ <= 0
c26_1: 1 t_2,1_ - 1 y_2,1_ <= 0
c27_1: 1 t_2,2_ - 1 y_2,1_ - 1 y_2,2_ <= 0
c28_1: 1 t_2,3_ - 1 y_2,2_ - 1 y_2,3_ <= 0
c29_1: 1 t_2,4_ - 1 y_2,3_ - 1 y_2,4_ <= 0
c30_1: 1 t_2,5_ - 1 y_2,4_ - 1 y_2,5_ <= 0
c31: 1 t_2,6_ - 1 y_2,5_ - 1 y_2,6_ <= 0
c32: 1 t_2,7_ - 1 y_2,6_ - 1 y_2,7_ <= 0
c33: 1 t_2,8_ - 1 y_2,7_ - 1 y_2,8_ <= 0
c34: 1 t_2,9_ - 1 y_2,8_ - 1 y_2,9_ <= 0
c35: 1 t_2,10_ - 1 y_2,9_ - 1 y_2,10_ <= 0
c36: 1 t_2,11_ - 1 y_2,10_ - 1 y_2,11_ <= 0
c37: 1 t_2,12_ - 1 y_2,11_ - 1 y_2,12_ <= 0
c38: 1 t_2,13_ - 1 y_2,12_ - 1 y_2,13_ <= 0
c39: 1 t_2,14_ - 1 y_2,13_ - 1 y_2,14_ <= 0
c40: 1 t_2,15_ - 1 y_2,14_ - 1 y_2,15_ <= 0
c41: 1 t_2,16_ - 1 y_2,15_ - 1 y_2,16_ <= 0
c42: 1 t_2,17_ - 1 y_2,16_ - 1 y_2,17_ <= 0
c43: 1 t_2,18_ - 1 y_2,17_ - 1 y_2,18_ <= 0
c44: 1 t_2,19_ - 1 y_2,18_ - 1 y_2,19_ <= 0
c45: 1 t_2,20_ - 1 y_2,19_ - 1 y_2,20_ <= 0
c46: 1 t_2,21_ - 1 y_2,20_ - 1 y_2,21_ <= 0
c47: 1 t_2,22_ - 1 y_2,21_ - 1 y_2,22_ <= 0
c48: 1 t_2,23_ - 1 y_2,22_ - 1 y_2,23_ <= 0
c49: 1 t_2,24_ - 1 y_2,23_ - 1 y_2,24_ <= 0
c50: 1 t_2,25_ - 1 y_2,24_ <= 0
c51: 1 t_3,1_ - 1 y_3,1_ <= 0
c52: 1 t_3,2_ - 1 y_3,1_ - 1 y_3,2_ <= 0
c53: 1 t_3,3_ - 1 y_3,2_ - 1 y_3,3_ <= 0
c54: 1 t_3,4_ - 1 y_3,3_ - 1 y_3,4_ <= 0
c55: 1 t_3,5_ - 1 y_3,4_ - 1 y_3,5_ <= 0
c56: 1 t_3,6_ - 1 y_3,5_ - 1 y_3,6_ <= 0
c57: 1 t_3,7_ - 1 y_3,6_ - 1 y_3,7_ <= 0
c58: 1 t_3,8_ - 1 y_3,7_ - 1 y_3,8_ <= 0
c59: 1 t_3,9_ - 1 y_3,8_ - 1 y_3,9_ <= 0
c60: 1 t_3,10_ - 1 y_3,9_ - 1 y_3,10_ <= 0
c61: 1 t_3,11_ - 1 y_3,10_ - 1 y_3,11_ <= 0
c62: 1 t_3,12_ - 1 y_3,11_ - 1 y_3,12_ <= 0
c63: 1 t_3,13_ - 1 y_3,12_ - 1 y_3,13_ <= 0
c64: 1 t_3,14_ - 1 y_3,13_ - 1 y_3,14_ <= 0
c65: 1 t_3,15_ - 1 y_3,14_ - 1 y_3,15_ <= 0
c66: 1 t_3,16_ - 1 y_3,15_ - 1 y_3,16_ <= 0
c67: 1 t_3,17_ - 1 y_3,16_ - 1 y_3,17_ <= 0
c68: 1 t_3,18_ - 1 y_3,17_ - 1 y_3,18_ <= 0
c69: 1 t_3,19_ - 1 y_3,18_ - 1 y_3,19_ <= 0
c70: 1 t_3,20_ - 1 y_3,19_ - 1 y_3,20_ <= 0
c71: 1 t_3,21_ - 1 y_3,20_ - 1 y_3,21_ <= 0
c72: 1 t_3,22_ - 1 y_3,21_ - 1 y_3,22_ <= 0
c73: 1 t_3,23_ - 1 y_3,22_ - 1 y_3,23_ <= 0
c74: 1 t_3,24_ - 1 y_3,23_ - 1 y_3,24_ <= 0
c75: 1 t_3,25_ - 1 y_3,24_ <= 0
c76: 1 t_4,1_ - 1 y_4,1_ <= 0
c77: 1 t_4,2_ - 1 y_4,1_ - 1 y_4,2_ <= 0
c78: 1 t_4,3_ - 1 y_4,2_ - 1 y_4,3_ <= 0
c79: 1 t_4,4_ - 1 y_4,3_ - 1 y_4,4_ <= 0
c80: 1 t_4,5_ - 1 y_4,4_ - 1 y_4,5_ <= 0
c81: 1 t_4,6_ - 1 y_4,5_ - 1 y_4,6_ <= 0
c82: 1 t_4,7_ - 1 y_4,6_ - 1 y_4,7_ <= 0
c83: 1 t_4,8_ - 1 y_4,7_ - 1 y_4,8_ <= 0
c84: 1 t_4,9_ - 1 y_4,8_ - 1 y_4,9_ <= 0
c85: 1 t_4,10_ - 1 y_4,9_ - 1 y_4,10_ <= 0
c86: 1 t_4,11_ - 1 y_4,10_ - 1 y_4,11_ <= 0
c87: 1 t_4,12_ - 1 y_4,11_ - 1 y_4,12_ <= 0
c88: 1 t_4,13_ - 1 y_4,12_ - 1 y_4,13_ <= 0
c89: 1 t_4,14_ - 1 y_4,13_ - 1 y_4,14_ <= 0
c90: 1 t_4,15_ - 1 y_4,14_ - 1 y_4,15_ <= 0
c91: 1 t_4,16_ - 1 y_4,15_ - 1 y_4,16_ <= 0
c92: 1 t_4,17_ - 1 y_4,16_ - 1 y_4,17_ <= 0
c93: 1 t_4,18_ - 1 y_4,17_ - 1 y_4,18_ <= 0
c94: 1 t_4,19_ - 1 y_4,18_ - 1 y_4,19_ <= 0
c95: 1 t_4,20_ - 1 y_4,19_ - 1 y_4,20_ <= 0
c96: 1 t_4,21_ - 1 y_4,20_ - 1 y_4,21_ <= 0
c97: 1 t_4,22_ - 1 y_4,21_ - 1 y_4,22_ <= 0
c98: 1 t_4,23_ - 1 y_4,22_ - 1 y_4,23_ <= 0
c99: 1 t_4,24_ - 1 y_4,23_ - 1 y_4,24_ <= 0
c100: 1 t_4,25_ - 1 y_4,24_ <= 0
c101: 1 t_5,1_ - 1 y_5,1_ <= 0
c102: 1 t_5,2_ - 1 y_5,1_ - 1 y_5,2_ <= 0
c103: 1 t_5,3_ - 1 y_5,2_ - 1 y_5,3_ <= 0
c104: 1 t_5,4_ - 1 y_5,3_ - 1 y_5,4_ <= 0
c105: 1 t_5,5_ - 1 y_5,4_ - 1 y_5,5_ <= 0
c106: 1 t_5,6_ - 1 y_5,5_ - 1 y_5,6_ <= 0
c107: 1 t_5,7_ - 1 y_5,6_ - 1 y_5,7_ <= 0
c108: 1 t_5,8_ - 1 y_5,7_ - 1 y_5,8_ <= 0
c109: 1 t_5,9_ - 1 y_5,8_ - 1 y_5,9_ <= 0
c110: 1 t_5,10_ - 1 y_5,9_ - 1 y_5,10_ <= 0
c111: 1 t_5,11_ - 1 y_5,10_ - 1 y_5,11_ <= 0
c112: 1 t_5,12_ - 1 y_5,11_ - 1 y_5,12_ <= 0
c113: 1 t_5,13_ - 1 y_5,12_ - 1 y_5,13_ <= 0
c114: 1 t_5,14_ - 1 y_5,13_ - 1 y_5,14_ <= 0
c115: 1 t_5,15_ - 1 y_5,14_ - 1 y_5,15_ <= 0
c116: 1 t_5,16_ - 1 y_5,15_ - 1 y_5,16_ <= 0
c117: 1 t_5,17_ - 1 y_5,16_ - 1 y_5,17_ <= 0
c118: 1 t_5,18_ - 1 y_5,17_ - 1 y_5,18_ <= 0
c119: 1 t_5,19_ - 1 y_5,18_ - 1 y_5,19_ <= 0
c120: 1 t_5,20_ - 1 y_5,19_ - 1 y_5,20_ <= 0
c121: 1 t_5,21_ - 1 y_5,20_ - 1 y_5,21_ <= 0
c122: 1 t_5,22_ - 1 y_5,21_ - 1 y_5,22_ <= 0
c123: 1 t_5,23_ - 1 y_5,22_ - 1 y_5,23_ <= 0
c124: 1 t_5,24_ - 1 y_5,23_ - 1 y_5,24_ <= 0
c125: 1 t_5,25_ - 1 y_5,24_ <= 0
c126: 1 t_6,1_ - 1 y_6,1_ <= 0
c127: 1 t_6,2_ - 1 y_6,1_ - 1 y_6,2_ <= 0
c128: 1 t_6,3_ - 1 y_6,2_ - 1 y_6,3_ <= 0
c129: 1 t_6,4_ - 1 y_6,3_ - 1 y_6,4_ <= 0
c130: 1 t_6,5_ - 1 y_6,4_ - 1 y_6,5_ <= 0
c131: 1 t_6,6_ - 1 y_6,5_ - 1 y_6,6_ <= 0
c132: 1 t_6,7_ - 1 y_6,6_ - 1 y_6,7_ <= 0
c133: 1 t_6,8_ - 1 y_6,7_ - 1 y_6,8_ <= 0
c134: 1 t_6,9_ - 1 y_6,8_ - 1 y_6,9_ <= 0
c135: 1 t_6,10_ - 1 y_6,9_ - 1 y_6,10_ <= 0
c136: 1 t_6,11_ - 1 y_6,10_ - 1 y_6,11_ <= 0
c137: 1 t_6,12_ - 1 y_6,11_ - 1 y_6,12_ <= 0
c138: 1 t_6,13_ - 1 y_6,12_ - 1 y_6,13_ <= 0
c139: 1 t_6,14_ - 1 y_6,13_ - 1 y_6,14_ <= 0
c140: 1 t_6,15_ - 1 y_6,14_ - 1 y_6,15_ <= 0
c141: 1 t_6,16_ - 1 y_6,15_ - 1 y_6,16_ <= 0
c142: 1 t_6,17_ - 1 y_6,16_ - 1 y_6,17_ <= 0
c143: 1 t_6,18_ - 1 y_6,17_ - 1 y_6,18_ <= 0
c144: 1 t_6,19_ - 1 y_6,18_ - 1 y_6,19_ <= 0
c145: 1 t_6,20_ - 1 y_6,19_ - 1 y_6,20_ <= 0
c146: 1 t_6,21_ - 1 y_6,20_ - 1 y_6,21_ <= 0
c147: 1 t_6,22_ - 1 y_6,21_ - 1 y_6,22_ <= 0
c148: 1 t_6,23_ - 1 y_6,22_ - 1 y_6,23_ <= 0
c149: 1 t_6,24_ - 1 y_6,23_ - 1 y_6,24_ <= 0
c150: 1 t_6,25_ - 1 y_6,24_ <= 0
c151: 1 t_7,1_ - 1 y_7,1_ <= 0
c152: 1 t_7,2_ - 1 y_7,1_ - 1 y_7,2_ <= 0
c153: 1 t_7,3_ - 1 y_7,2_ - 1 y_7,3_ <= 0
c154: 1 t_7,4_ - 1 y_7,3_ - 1 y_7,4_ <= 0
c155: 1 t_7,5_ - 1 y_7,4_ - 1 y_7,5_ <= 0
c156: 1 t_7,6_ - 1 y_7,5_ - 1 y_7,6_ <= 0
c157: 1 t_7,7_ - 1 y_7,6_ - 1 y_7,7_ <= 0
c158: 1 t_7,8_ - 1 y_7,7_ - 1 y_7,8_ <= 0
c159: 1 t_7,9_ - 1 y_7,8_ - 1 y_7,9_ <= 0
c160: 1 t_7,10_ - 1 y_7,9_ - 1 y_7,10_ <= 0
c161: 1 t_7,11_ - 1 y_7,10_ - 1 y_7,11_ <= 0
c162: 1 t_7,12_ - 1 y_7,11_ - 1 y_7,12_ <= 0
c163: 1 t_7,13_ - 1 y_7,12_ - 1 y_7,13_ <= 0
c164: 1 t_7,14_ - 1 y_7,13_ - 1 y_7,14_ <= 0
c165: 1 t_7,15_ - 1 y_7,14_ - 1 y_7,15_ <= 0
c166: 1 t_7,16_ - 1 y_7,15_ - 1 y_7,16_ <= 0
c167: 1 t_7,17_ - 1 y_7,16_ - 1 y_7,17_ <= 0
c168: 1 t_7,18_ - 1 y_7,17_ - 1 y_7,18_ <= 0
c169: 1 t_7,19_ - 1 y_7,18_ - 1 y_7,19_ <= 0
c170: 1 t_7,20_ - 1 y_7,19_ - 1 y_7,20_ <= 0
c171: 1 t_7,21_ - 1 y_7,20_ - 1 y_7,21_ <= 0
c172: 1 t_7,22_ - 1 y_7,21_ - 1 y_7,22_ <= 0
c173: 1 t_7,23_ - 1 y_7,22_ - 1 y_7,23_ <= 0
c174: 1 t_7,24_ - 1 y_7,23_ - 1 y_7,24_ <= 0
c175: 1 t_7,25_ - 1 y_7,24_ <= 0
c176: 1 t_8,1_ - 1 y_8,1_ <= 0
c177: 1 t_8,2_ - 1 y_8,1_ - 1 y_8,2_ <= 0
c178: 1 t_8,3_ - 1 y_8,2_ - 1 y_8,3_ <= 0
c179: 1 t_8,4_ - 1 y_8,3_ - 1 y_8,4_ <= 0
c180: 1 t_8,5_ - 1 y_8,4_ - 1 y_8,5_ <= 0
c181: 1 t_8,6_ - 1 y_8,5_ - 1 y_8,6_ <= 0
c182: 1 t_8,7_ - 1 y_8,6_ - 1 y_8,7_ <= 0
c183: 1 t_8,8_ - 1 y_8,7_ - 1 y_8,8_ <= 0
c184: 1 t_8,9_ - 1 y_8,8_ - 1 y_8,9_ <= 0
c185: 1 t_8,10_ - 1 y_8,9_ - 1 y_8,10_ <= 0
c186: 1 t_8,11_ - 1 y_8,10_ - 1 y_8,11_ <= 0
c187: 1 t_8,12_ - 1 y_8,11_ - 1 y_8,12_ <= 0
c188: 1 t_8,13_ - 1 y_8,12_ - 1 y_8,13_ <= 0
c189: 1 t_8,14_ - 1 y_8,13_ - 1 y_8,14_ <= 0
c190: 1 t_8,15_ - 1 y_8,14_ - 1 y_8,15_ <= 0
c191: 1 t_8,16_ - 1 y_8,15_ - 1 y_8,16_ <= 0
c192: 1 t_8,17_ - 1 y_8,16_ - 1 y_8,17_ <= 0
c193: 1 t_8,18_ - 1 y_8,17_ - 1 y_8,18_ <= 0
c194: 1 t_8,19_ - 1 y_8,18_ - 1 y_8,19_ <= 0
c195: 1 t_8,20_ - 1 y_8,19_ - 1 y_8,20_ <= 0
c196: 1 t_8,21_ - 1 y_8,20_ - 1 y_8,21_ <= 0
c197: 1 t_8,22_ - 1 y_8,21_ - 1 y_8,22_ <= 0
c198: 1 t_8,23_ - 1 y_8,22_ - 1 y_8,23_ <= 0
c199: 1 t_8,24_ - 1 y_8,23_ - 1 y_8,24_ <= 0
c200: 1 t_8,25_ - 1 y_8,24_ <= 0
c201: 1 t_9,1_ - 1 y_9,1_ <= 0
c202: 1 t_9,2_ - 1 y_9,1_ - 1 y_9,2_ <= 0
c203: 1 t_9,3_ - 1 y_9,2_ - 1 y_9,3_ <= 0
c204: 1 t_9,4_ - 1 y_9,3_ - 1 y_9,4_ <= 0
c205: 1 t_9,5_ - 1 y_9,4_ - 1 y_9,5_ <= 0
c206: 1 t_9,6_ - 1 y_9,5_ - 1 y_9,6_ <= 0
c207: 1 t_9,7_ - 1 y_9,6_ - 1 y_9,7_ <= 0
c208: 1 t_9,8_ - 1 y_9,7_ - 1 y_9,8_ <= 0
c209: 1 t_9,9_ - 1 y_9,8_ - 1 y_9,9_ <= 0
c210: 1 t_9,10_ - 1 y_9,9_ - 1 y_9,10_ <= 0
c211: 1 t_9,11_ - 1 y_9,10_ - 1 y_9,11_ <= 0
c212: 1 t_9,12_ - 1 y_9,11_ - 1 y_9,12_ <= 0
c213: 1 t_9,13_ - 1 y_9,12_ - 1 y_9,13_ <= 0
c214: 1 t_9,14_ - 1 y_9,13_ - 1 y_9,14_ <= 0
c215: 1 t_9,15_ - 1 y_9,14_ - 1 y_9,15_ <= 0
c216: 1 t_9,16_ - 1 y_9,15_ - 1 y_9,16_ <= 0
c217: 1 t_9,17_ - 1 y_9,16_ - 1 y_9,17_ <= 0
c218: 1 t_9,18_ - 1 y_9,17_ - 1 y_9,18_ <= 0
c219: 1 t_9,19_ - 1 y_9,18_ - 1 y_9,19_ <= 0
c220: 1 t_9,20_ - 1 y_9,19_ - 1 y_9,20_ <= 0
c221: 1 t_9,21_ - 1 y_9,20_ - 1 y_9,21_ <= 0
c222: 1 t_9,22_ - 1 y_9,21_ - 1 y_9,22_ <= 0
c223: 1 t_9,23_ - 1 y_9,22_ - 1 y_9,23_ <= 0
c224: 1 t_9,24_ - 1 y_9,23_ - 1 y_9,24_ <= 0
c225: 1 t_9,25_ - 1 y_9,24_ <= 0
c226: 1 t_10,1_ - 1 y_10,1_ <= 0
c227: 1 t_10,2_ - 1 y_10,1_ - 1 y_10,2_ <= 0
c228: 1 t_10,3_ - 1 y_10,2_ - 1 y_10,3_ <= 0
c229: 1 t_10,4_ - 1 y_10,3_ - 1 y_10,4_ <= 0
c230: 1 t_10,5_ - 1 y_10,4_ - 1 y_10,5_ <= 0
c231: 1 t_10,6_ - 1 y_10,5_ - 1 y_10,6_ <= 0
c232: 1 t_10,7_ - 1 y_10,6_ - 1 y_10,7_ <= 0
c233: 1 t_10,8_ - 1 y_10,7_ - 1 y_10,8_ <= 0
c234: 1 t_10,9_ - 1 y_10,8_ - 1 y_10,9_ <= 0
c235: 1 t_10,10_ - 1 y_10,9_ - 1 y_10,10_ <= 0
c236: 1 t_10,11_ - 1 y_10,10_ - 1 y_10,11_ <= 0
c237: 1 t_10,12_ - 1 y_10,11_ - 1 y_10,12_ <= 0
c238: 1 t_10,13_ - 1 y_10,12_ - 1 y_10,13_ <= 0
c239: 1 t_10,14_ - 1 y_10,13_ - 1 y_10,14_ <= 0
c240: 1 t_10,15_ - 1 y_10,14_ - 1 y_10,15_ <= 0
c241: 1 t_10,16_ - 1 y_10,15_ - 1 y_10,16_ <= 0
c242: 1 t_10,17_ - 1 y_10,16_ - 1 y_10,17_ <= 0
c243: 1 t_10,18_ - 1 y_10,17_ - 1 y_10,18_ <= 0
c244: 1 t_10,19_ - 1 y_10,18_ - 1 y_10,19_ <= 0
c245: 1 t_10,20_ - 1 y_10,19_ - 1 y_10,20_ <= 0
c246: 1 t_10,21_ - 1 y_10,20_ - 1 y_10,21_ <= 0
c247: 1 t_10,22_ - 1 y_10,21_ - 1 y_10,22_ <= 0
c248: 1 t_10,23_ - 1 y_10,22_ - 1 y_10,23_ <= 0
c249: 1 t_10,24_ - 1 y_10,23_ - 1 y_10,24_ <= 0
c250: 1 t_10,25_ - 1 y_10,24_ <= 0
c251: 4 t_1,1_ + 4 t_2,1_ + 4 t_3,1_ + 4 t_4,1_ + 4 t_5,1_ + 4 t_6,1_ + 4 t_7,1_ + 4 t_8,1_ + 4 t_9,1_ + 4 t_10,1_ + 3.3611111111111116 t_1,2_ + 3.3611111111111116 t_2,2_ + 3.3611111111111116 t_3,2_ + 3.3611111111111116 t_4,2_ + 3.3611111111111116 t_5,2_ + 3.3611111111111116 t_6,2_ + 3.3611111111111116 t_7,2_ + 3.3611111111111116 t_8,2_ + 3.3611111111111116 t_9,2_ + 3.3611111111111116 t_10,2_ + 2.7777777777777772 t_1,3_ + 2.7777777777777772 t_2,3_ + 2.7777777777777772 t_3,3_ + 2.7777777777777772 t_4,3_ + 2.7777777777777772 t_5,3_ + 2.7777777777777772 t_6,3_ + 2.7777777777777772 t_7,3_ + 2.7777777777777772 t_8,3_ + 2.7777777777777772 t_9,3_ + 2.7777777777777772 t_10,3_ + 2.25 t_1,4_ + 2.25 t_2,4_ + 2.25 t_3,4_ + 2.25 t_4,4_ + 2.25 t_5,4_ + 2.25 t_6,4_ + 2.25 t_7,4_ + 2.25 t_8,4_ + 2.25 t_9,4_ + 2.25 t_10,4_ + 1.7777777777777781 t_1,5_ + 1.7777777777777781 t_2,5_ + 1.7777777777777781 t_3,5_ + 1.7777777777777781 t_4,5_ + 1.7777777777777781 t_5,5_ + 1.7777777777777781 t_6,5_ + 1.7777777777777781 t_7,5_ + 1.7777777777777781 t_8,5_ + 1.7777777777777781 t_9,5_ + 1.7777777777777781 t_10,5_ + 1.3611111111111107 t_1,6_ + 1.3611111111111107 t_2,6_ + 1.3611111111111107 t_3,6_ + 1.3611111111111107 t_4,6_ + 1.3611111111111107 t_5,6_ + 1.3611111111111107 t_6,6_ + 1.3611111111111107 t_7,6_ + 1.3611111111111107 t_8,6_ + 1.3611111111111107 t_9,6_ + 1.3611111111111107 t_10,6_ + 1 t_1,7_ + 1 t_2,7_ + 1 t_3,7_ + 1 t_4,7_ + 1 t_5,7_ + 1 t_6,7_ + 1 t_7,7_ + 1 t_8,7_ + 1 t_9,7_ + 1 t_10,7_ + 0.6944444444444441 t_1,8_ + 0.6944444444444441 t_2,8_ + 0.6944444444444441 t_3,8_ + 0.6944444444444441 t_4,8_ + 0.6944444444444441 t_5,8_ + 0.6944444444444441 t_6,8_ + 0.6944444444444441 t_7,8_ + 0.6944444444444441 t_8,8_ + 0.6944444444444441 t_9,8_ + 0.6944444444444441 t_10,8_ + 0.4444444444444447 t_1,9_ + 0.4444444444444447 t_2,9_ + 0.4444444444444447 t_3,9_ + 0.4444444444444447 t_4,9_ + 0.4444444444444447 t_5,9_ + 0.4444444444444447 t_6,9_ + 0.4444444444444447 t_7,9_ + 0.4444444444444447 t_8,9_ + 0.4444444444444447 t_9,9_ + 0.4444444444444447 t_10,9_ + 0.25 t_1,10_ + 0.25 t_2,10_ + 0.25 t_3,10_ + 0.25 t_4,10_ + 0.25 t_5,10_ + 0.25 t_6,10_ + 0.25 t_7,10_ + 0.25 t_8,10_ + 0.25 t_9,10_ + 0.25 t_10,10_ + 0.111111111111111 t_1,11_ + 0.111111111111111 t_2,11_ + 0.111111111111111 t_3,11_ + 0.111111111111111 t_4,11_ + 0.111111111111111 t_5,11_ + 0.111111111111111 t_6,11_ + 0.111111111111111 t_7,11_ + 0.111111111111111 t_8,11_ + 0.111111111111111 t_9,11_ + 0.111111111111111 t_10,11_ + 0.02777777777777784 t_1,12_ + 0.02777777777777784 t_2,12_ + 0.02777777777777784 t_3,12_ + 0.02777777777777784 t_4,12_ + 0.02777777777777784 t_5,12_ + 0.02777777777777784 t_6,12_ + 0.02777777777777784 t_7,12_ + 0.02777777777777784 t_8,12_ + 0.02777777777777784 t_9,12_ + 0.02777777777777784 t_10,12_ + 0.027777777777777728 t_1,14_ + 0.027777777777777728 t_2,14_ + 0.027777777777777728 t_3,14_ + 0.027777777777777728 t_4,14_ + 0.027777777777777728 t_5,14_ + 0.027777777777777728 t_6,14_ + 0.027777777777777728 t_7,14_ + 0.027777777777777728 t_8,14_ + 0.027777777777777728 t_9,14_ + 0.027777777777777728 t_10,14_ + 0.11111111111111122 t_1,15_ + 0.11111111111111122 t_2,15_ + 0.11111111111111122 t_3,15_ + 0.11111111111111122 t_4,15_ + 0.11111111111111122 t_5,15_ + 0.11111111111111122 t_6,15_ + 0.11111111111111122 t_7,15_ + 0.11111111111111122 t_8,15_ + 0.11111111111111122 t_9,15_ + 0.11111111111111122 t_10,15_ + 0.25 t_1,16_ + 0.25 t_2,16_ + 0.25 t_3,16_ + 0.25 t_4,16_ + 0.25 t_5,16_ + 0.25 t_6,16_ + 0.25 t_7,16_ + 0.25 t_8,16_ + 0.25 t_9,16_ + 0.25 t_10,16_ + 0.44444444444444425 t_1,17_ + 0.44444444444444425 t_2,17_ + 0.44444444444444425 t_3,17_ + 0.44444444444444425 t_4,17_ + 0.44444444444444425 t_5,17_ + 0.44444444444444425 t_6,17_ + 0.44444444444444425 t_7,17_ + 0.44444444444444425 t_8,17_ + 0.44444444444444425 t_9,17_ + 0.44444444444444425 t_10,17_ + 0.6944444444444446 t_1,18_ + 0.6944444444444446 t_2,18_ + 0.6944444444444446 t_3,18_ + 0.6944444444444446 t_4,18_ + 0.6944444444444446 t_5,18_ + 0.6944444444444446 t_6,18_ + 0.6944444444444446 t_7,18_ + 0.6944444444444446 t_8,18_ + 0.6944444444444446 t_9,18_ + 0.6944444444444446 t_10,18_ + 1 t_1,19_ + 1 t_2,19_ + 1 t_3,19_ + 1 t_4,19_ + 1 t_5,19_ + 1 t_6,19_ + 1 t_7,19_ + 1 t_8,19_ + 1 t_9,19_ + 1 t_10,19_ + 1.3611111111111107 t_1,20_ + 1.3611111111111107 t_2,20_ + 1.3611111111111107 t_3,20_ + 1.3611111111111107 t_4,20_ + 1.3611111111111107 t_5,20_ + 1.3611111111111107 t_6,20_ + 1.3611111111111107 t_7,20_ + 1.3611111111111107 t_8,20_ + 1.3611111111111107 t_9,20_ + 1.3611111111111107 t_10,20_ + 1.7777777777777781 t_1,21_ + 1.7777777777777781 t_2,21_ + 1.7777777777777781 t_3,21_ + 1.7777777777777781 t_4,21_ + 1.7777777777777781 t_5,21_ + 1.7777777777777781 t_6,21_ + 1.7777777777777781 t_7,21_ + 1.7777777777777781 t_8,21_ + 1.7777777777777781 t_9,21_ + 1.7777777777777781 t_10,21_ + 2.25 t_1,22_ + 2.25 t_2,22_ + 2.25 t_3,22_ + 2.25 t_4,22_ + 2.25 t_5,22_ + 2.25 t_6,22_ + 2.25 t_7,22_ + 2.25 t_8,22_ + 2.25 t_9,22_ + 2.25 t_10,22_ + 2.7777777777777772 t_1,23_ + 2.7777777777777772 t_2,23_ + 2.7777777777777772 t_3,23_ + 2.7777777777777772 t_4,23_ + 2.7777777777777772 t_5,23_ + 2.7777777777777772 t_6,23_ + 2.7777777777777772 t_7,23_ + 2.7777777777777772 t_8,23_ + 2.7777777777777772 t_9,23_ + 2.7777777777777772 t_10,23_ + 3.3611111111111116 t_1,24_ + 3.3611111111111116 t_2,24_ + 3.3611111111111116 t_3,24_ + 3.3611111111111116 t_4,24_ + 3.3611111111111116 t_5,24_ + 3.3611111111111116 t_6,24_ + 3.3611111111111116 t_7,24_ + 3.3611111111111116 t_8,24_ + 3.3611111111111116 t_9,24_ + 3.3611111111111116 t_10,24_ + 4 t_1,25_ + 4 t_2,25_ + 4 t_3,25_ + 4 t_4,25_ + 4 t_5,25_ + 4 t_6,25_ + 4 t_7,25_ + 4 t_8,25_ + 4 t_9,25_ + 4 t_10,25_ <= 1
c1: 1 y_1,1_ + 1 y_1,2_ + 1 y_1,3_ + 1 y_1,4_ + 1 y_1,5_ + 1 y_1,6_ + 1 y_1,7_ + 1 y_1,8_ + 1 y_1,9_ + 1 y_1,10_ + 1 y_1,11_ + 1 y_1,12_ + 1 y_1,13_ + 1 y_1,14_ + 1 y_1,15_ + 1 y_1,16_ + 1 y_1,17_ + 1 y_1,18_ + 1 y_1,19_ + 1 y_1,20_ + 1 y_1,21_ + 1 y_1,22_ + 1 y_1,23_ + 1 y_1,24_ = 1
c2: 1 t_1,1_ + 1 t_1,2_ + 1 t_1,3_ + 1 t_1,4_ + 1 t_1,5_ + 1 t_1,6_ + 1 t_1,7_ + 1 t_1,8_ + 1 t_1,9_ + 1 t_1,10_ + 1 t_1,11_ + 1 t_1,12_ + 1 t_1,13_ + 1 t_1,14_ + 1 t_1,15_ + 1 t_1,16_ + 1 t_1,17_ + 1 t_1,18_ + 1 t_1,19_ + 1 t_1,20_ + 1 t_1,21_ + 1 t_1,22_ + 1 t_1,23_ + 1 t_1,24_ + 1 t_1,25_ = 1
c3: -2 t_1,1_ - 1.8333333333333335 t_1,2_ - 1.6666666666666665 t_1,3_ - 1.5 t_1,4_ - 1.3333333333333335 t_1,5_ - 1.1666666666666665 t_1,6_ - 1 t_1,7_ - 0.8333333333333331 t_1,8_ - 0.6666666666666669 t_1,9_ - 0.5 t_1,10_ - 0.33333333333333315 t_1,11_ - 0.16666666666666685 t_1,12_ + 0.16666666666666652 t_1,14_ + 0.3333333333333335 t_1,15_ + 0.5 t_1,16_ + 0.6666666666666665 t_1,17_ + 0.8333333333333335 t_1,18_ + 1 t_1,19_ + 1.1666666666666665 t_1,20_ + 1.3333333333333335 t_1,21_ + 1.5 t_1,22_ + 1.6666666666666665 t_1,23_ + 1.8333333333333335 t_1,24_ + 2 t_1,25_ - 1 x_1_ = 0
c4: 1 y_2,1_ + 1 y_2,2_ + 1 y_2,3_ + 1 y_2,4_ + 1 y_2,5_ + 1 y_2,6_ + 1 y_2,7_ + 1 y_2,8_ + 1 y_2,9_ + 1 y_2,10_ + 1 y_2,11_ + 1 y_2,12_ + 1 y_2,13_ + 1 y_2,14_ + 1 y_2,15_ + 1 y_2,16_ + 1 y_2,17_ + 1 y_2,18_ + 1 y_2,19_ + 1 y_2,20_ + 1 y_2,21_ + 1 y_2,22_ + 1 y_2,23_ + 1 y_2,24_ = 1
c5: 1 t_2,1_ + 1 t_2,2_ + 1 t_2,3_ + 1 t_2,4_ + 1 t_2,5_ + 1 t_2,6_ + 1 t_2,7_ + 1 t_2,8_ + 1 t_2,9_ + 1 t_2,10_ + 1 t_2,11_ + 1 t_2,12_ + 1 t_2,13_ + 1 t_2,14_ + 1 t_2,15_ + 1 t_2,16_ + 1 t_2,17_ + 1 t_2,18_ + 1 t_2,19_ + 1 t_2,20_ + 1 t_2,21_ + 1 t_2,22_ + 1 t_2,23_ + 1 t_2,24_ + 1 t_2,25_ = 1
c6: -2 t_2,1_ - 1.8333333333333335 t_2,2_ - 1.6666666666666665 t_2,3_ - 1.5 t_2,4_ - 1.3333333333333335 t_2,5_ - 1.1666666666666665 t_2,6_ - 1 t_2,7_ - 0.8333333333333331 t_2,8_ - 0.6666666666666669 t_2,9_ - 0.5 t_2,10_ - 0.33333333333333315 t_2,11_ - 0.16666666666666685 t_2,12_ + 0.16666666666666652 t_2,14_ + 0.3333333333333335 t_2,15_ + 0.5 t_2,16_ + 0.6666666666666665 t_2,17_ + 0.8333333333333335 t_2,18_ + 1 t_2,19_ + 1.1666666666666665 t_2,20_ + 1.3333333333333335 t_2,21_ + 1.5 t_2,22_ + 1.6666666666666665 t_2,23_ + 1.8333333333333335 t_2,24_ + 2 t_2,25_ - 1 x_2_ = 0
c7: 1 y_3,1_ + 1 y_3,2_ + 1 y_3,3_ + 1 y_3,4_ + 1 y_3,5_ + 1 y_3,6_ + 1 y_3,7_ + 1 y_3,8_ + 1 y_3,9_ + 1 y_3,10_ + 1 y_3,11_ + 1 y_3,12_ + 1 y_3,13_ + 1 y_3,14_ + 1 y_3,15_ + 1 y_3,16_ + 1 y_3,17_ + 1 y_3,18_ + 1 y_3,19_ + 1 y_3,20_ + 1 y_3,21_ + 1 y_3,22_ + 1 y_3,23_ + 1 y_3,24_ = 1
c8: 1 t_3,1_ + 1 t_3,2_ + 1 t_3,3_ + 1 t_3,4_ + 1 t_3,5_ + 1 t_3,6_ + 1 t_3,7_ + 1 t_3,8_ + 1 t_3,9_ + 1 t_3,10_ + 1 t_3,11_ + 1 t_3,12_ + 1 t_3,13_ + 1 t_3,14_ + 1 t_3,15_ + 1 t_3,16_ + 1 t_3,17_ + 1 t_3,18_ + 1 t_3,19_ + 1 t_3,20_ + 1 t_3,21_ + 1 t_3,22_ + 1 t_3,23_ + 1 t_3,24_ + 1 t_3,25_ = 1
c9: -2 t_3,1_ - 1.8333333333333335 t_3,2_ - 1.6666666666666665 t_3,3_ - 1.5 t_3,4_ - 1.3333333333333335 t_3,5_ - 1.1666666666666665 t_3,6_ - 1 t_3,7_ - 0.8333333333333331 t_3,8_ - 0.6666666666666669 t_3,9_ - 0.5 t_3,10_ - 0.33333333333333315 t_3,11_ - 0.16666666666666685 t_3,12_ + 0.16666666666666652 t_3,14_ + 0.3333333333333335 t_3,15_ + 0.5 t_3,16_ + 0.6666666666666665 t_3,17_ + 0.8333333333333335 t_3,18_ + 1 t_3,19_ + 1.1666666666666665 t_3,20_ + 1.3333333333333335 t_3,21_ + 1.5 t_3,22_ + 1.6666666666666665 t_3,23_ + 1.8333333333333335 t_3,24_ + 2 t_3,25_ - 1 x_3_ = 0
c10: 1 y_4,1_ + 1 y_4,2_ + 1 y_4,3_ + 1 y_4,4_ + 1 y_4,5_ + 1 y_4,6_ + 1 y_4,7_ + 1 y_4,8_ + 1 y_4,9_ + 1 y_4,10_ + 1 y_4,11_ + 1 y_4,12_ + 1 y_4,13_ + 1 y_4,14_ + 1 y_4,15_ + 1 y_4,16_ + 1 y_4,17_ + 1 y_4,18_ + 1 y_4,19_ + 1 y_4,20_ + 1 y_4,21_ + 1 y_4,22_ + 1 y_4,23_ + 1 y_4,24_ = 1
c11: 1 t_4,1_ + 1 t_4,2_ + 1 t_4,3_ + 1 t_4,4_ + 1 t_4,5_ + 1 t_4,6_ + 1 t_4,7_ + 1 t_4,8_ + 1 t_4,9_ + 1 t_4,10_ + 1 t_4,11_ + 1 t_4,12_ + 1 t_4,13_ + 1 t_4,14_ + 1 t_4,15_ + 1 t_4,16_ + 1 t_4,17_ + 1 t_4,18_ + 1 t_4,19_ + 1 t_4,20_ + 1 t_4,21_ + 1 t_4,22_ + 1 t_4,23_ + 1 t_4,24_ + 1 t_4,25_ = 1
c12: -2 t_4,1_ - 1.8333333333333335 t_4,2_ - 1.6666666666666665 t_4,3_ - 1.5 t_4,4_ - 1.3333333333333335 t_4,5_ - 1.1666666666666665 t_4,6_ - 1 t_4,7_ - 0.8333333333333331 t_4,8_ - 0.6666666666666669 t_4,9_ - 0.5 t_4,10_ - 0.33333333333333315 t_4,11_ - 0.16666666666666685 t_4,12_ + 0.16666666666666652 t_4,14_ + 0.3333333333333335 t_4,15_ + 0.5 t_4,16_ + 0.6666666666666665 t_4,17_ + 0.8333333333333335 t_4,18_ + 1 t_4,19_ + 1.1666666666666665 t_4,20_ + 1.3333333333333335 t_4,21_ + 1.5 t_4,22_ + 1.6666666666666665 t_4,23_ + 1.8333333333333335 t_4,24_ + 2 t_4,25_ - 1 x_4_ = 0
c13: 1 y_5,1_ + 1 y_5,2_ + 1 y_5,3_ + 1 y_5,4_ + 1 y_5,5_ + 1 y_5,6_ + 1 y_5,7_ + 1 y_5,8_ + 1 y_5,9_ + 1 y_5,10_ + 1 y_5,11_ + 1 y_5,12_ + 1 y_5,13_ + 1 y_5,14_ + 1 y_5,15_ + 1 y_5,16_ + 1 y_5,17_ + 1 y_5,18_ + 1 y_5,19_ + 1 y_5,20_ + 1 y_5,21_ + 1 y_5,22_ + 1 y_5,23_ + 1 y_5,24_ = 1
c14: 1 t_5,1_ + 1 t_5,2_ + 1 t_5,3_ + 1 t_5,4_ + 1 t_5,5_ + 1 t_5,6_ + 1 t_5,7_ + 1 t_5,8_ + 1 t_5,9_ + 1 t_5,10_ + 1 t_5,11_ + 1 t_5,12_ + 1 t_5,13_ + 1 t_5,14_ + 1 t_5,15_ + 1 t_5,16_ + 1 t_5,17_ + 1 t_5,18_ + 1 t_5,19_ + 1 t_5,20_ + 1 t_5,21_ + 1 t_5,22_ + 1 t_5,23_ + 1 t_5,24_ + 1 t_5,25_ = 1
c15: -2 t_5,1_ - 1.8333333333333335 t_5,2_ - 1.6666666666666665 t_5,3_ - 1.5 t_5,4_ - 1.3333333333333335 t_5,5_ - 1.1666666666666665 t_5,6_ - 1 t_5,7_ - 0.8333333333333331 t_5,8_ - 0.6666666666666669 t_5,9_ - 0.5 t_5,10_ - 0.33333333333333315 t_5,11_ - 0.16666666666666685 t_5,12_ + 0.16666666666666652 t_5,14_ + 0.3333333333333335 t_5,15_ + 0.5 t_5,16_ + 0.6666666666666665 t_5,17_ + 0.8333333333333335 t_5,18_ + 1 t_5,19_ + 1.1666666666666665 t_5,20_ + 1.3333333333333335 t_5,21_ + 1.5 t_5,22_ + 1.6666666666666665 t_5,23_ + 1.8333333333333335 t_5,24_ + 2 t_5,25_ - 1 x_5_ = 0
c16: 1 y_6,1_ + 1 y_6,2_ + 1 y_6,3_ + 1 y_6,4_ + 1 y_6,5_ + 1 y_6,6_ + 1 y_6,7_ + 1 y_6,8_ + 1 y_6,9_ + 1 y_6,10_ + 1 y_6,11_ + 1 y_6,12_ + 1 y_6,13_ + 1 y_6,14_ + 1 y_6,15_ + 1 y_6,16_ + 1 y_6,17_ + 1 y_6,18_ + 1 y_6,19_ + 1 y_6,20_ + 1 y_6,21_ + 1 y_6,22_ + 1 y_6,23_ + 1 y_6,24_ = 1
c17: 1 t_6,1_ + 1 t_6,2_ + 1 t_6,3_ + 1 t_6,4_ + 1 t_6,5_ + 1 t_6,6_ + 1 t_6,7_ + 1 t_6,8_ + 1 t_6,9_ + 1 t_6,10_ + 1 t_6,11_ + 1 t_6,12_ + 1 t_6,13_ + 1 t_6,14_ + 1 t_6,15_ + 1 t_6,16_ + 1 t_6,17_ + 1 t_6,18_ + 1 t_6,19_ + 1 t_6,20_ + 1 t_6,21_ + 1 t_6,22_ + 1 t_6,23_ + 1 t_6,24_ + 1 t_6,25_ = 1
c18: -2 t_6,1_ - 1.8333333333333335 t_6,2_ - 1.6666666666666665 t_6,3_ - 1.5 t_6,4_ - 1.3333333333333335 t_6,5_ - 1.1666666666666665 t_6,6_ - 1 t_6,7_ - 0.8333333333333331 t_6,8_ - 0.6666666666666669 t_6,9_ - 0.5 t_6,10_ - 0.33333333333333315 t_6,11_ - 0.16666666666666685 t_6,12_ + 0.16666666666666652 t_6,14_ + 0.3333333333333335 t_6,15_ + 0.5 t_6,16_ + 0.6666666666666665 t_6,17_ + 0.8333333333333335 t_6,18_ + 1 t_6,19_ + 1.1666666666666665 t_6,20_ + 1.3333333333333335 t_6,21_ + 1.5 t_6,22_ + 1.6666666666666665 t_6,23_ + 1.8333333333333335 t_6,24_ + 2 t_6,25_ - 1 x_6_ = 0
c19: 1 y_7,1_ + 1 y_7,2_ + 1 y_7,3_ + 1 y_7,4_ + 1 y_7,5_ + 1 y_7,6_ + 1 y_7,7_ + 1 y_7,8_ + 1 y_7,9_ + 1 y_7,10_ + 1 y_7,11_ + 1 y_7,12_ + 1 y_7,13_ + 1 y_7,14_ + 1 y_7,15_ + 1 y_7,16_ + 1 y_7,17_ + 1 y_7,18_ + 1 y_7,19_ + 1 y_7,20_ + 1 y_7,21_ + 1 y_7,22_ + 1 y_7,23_ + 1 y_7,24_ = 1
c20: 1 t_7,1_ + 1 t_7,2_ + 1 t_7,3_ + 1 t_7,4_ + 1 t_7,5_ + 1 t_7,6_ + 1 t_7,7_ + 1 t_7,8_ + 1 t_7,9_ + 1 t_7,10_ + 1 t_7,11_ + 1 t_7,12_ + 1 t_7,13_ + 1 t_7,14_ + 1 t_7,15_ + 1 t_7,16_ + 1 t_7,17_ + 1 t_7,18_ + 1 t_7,19_ + 1 t_7,20_ + 1 t_7,21_ + 1 t_7,22_ + 1 t_7,23_ + 1 t_7,24_ + 1 t_7,25_ = 1
c21: -2 t_7,1_ - 1.8333333333333335 t_7,2_ - 1.6666666666666665 t_7,3_ - 1.5 t_7,4_ - 1.3333333333333335 t_7,5_ - 1.1666666666666665 t_7,6_ - 1 t_7,7_ - 0.8333333333333331 t_7,8_ - 0.6666666666666669 t_7,9_ - 0.5 t_7,10_ - 0.33333333333333315 t_7,11_ - 0.16666666666666685 t_7,12_ + 0.16666666666666652 t_7,14_ + 0.3333333333333335 t_7,15_ + 0.5 t_7,16_ + 0.6666666666666665 t_7,17_ + 0.8333333333333335 t_7,18_ + 1 t_7,19_ + 1.1666666666666665 t_7,20_ + 1.3333333333333335 t_7,21_ + 1.5 t_7,22_ + 1.6666666666666665 t_7,23_ + 1.8333333333333335 t_7,24_ + 2 t_7,25_ - 1 x_7_ = 0
c22: 1 y_8,1_ + 1 y_8,2_ + 1 y_8,3_ + 1 y_8,4_ + 1 y_8,5_ + 1 y_8,6_ + 1 y_8,7_ + 1 y_8,8_ + 1 y_8,9_ + 1 y_8,10_ + 1 y_8,11_ + 1 y_8,12_ + 1 y_8,13_ + 1 y_8,14_ + 1 y_8,15_ + 1 y_8,16_ + 1 y_8,17_ + 1 y_8,18_ + 1 y_8,19_ + 1 y_8,20_ + 1 y_8,21_ + 1 y_8,22_ + 1 y_8,23_ + 1 y_8,24_ = 1
c23: 1 t_8,1_ + 1 t_8,2_ + 1 t_8,3_ + 1 t_8,4_ + 1 t_8,5_ + 1 t_8,6_ + 1 t_8,7_ + 1 t_8,8_ + 1 t_8,9_ + 1 t_8,10_ + 1 t_8,11_ + 1 t_8,12_ + 1 t_8,13_ + 1 t_8,14_ + 1 t_8,15_ + 1 t_8,16_ + 1 t_8,17_ + 1 t_8,18_ + 1 t_8,19_ + 1 t_8,20_ + 1 t_8,21_ + 1 t_8,22_ + 1 t_8,23_ + 1 t_8,24_ + 1 t_8,25_ = 1
c24: -2 t_8,1_ - 1.8333333333333335 t_8,2_ - 1.6666666666666665 t_8,3_ - 1.5 t_8,4_ - 1.3333333333333335 t_8,5_ - 1.1666666666666665 t_8,6_ - 1 t_8,7_ - 0.8333333333333331 t_8,8_ - 0.6666666666666669 t_8,9_ - 0.5 t_8,10_ - 0.33333333333333315 t_8,11_ - 0.16666666666666685 t_8,12_ + 0.16666666666666652 t_8,14_ + 0.3333333333333335 t_8,15_ + 0.5 t_8,16_ + 0.6666666666666665 t_8,17_ + 0.8333333333333335 t_8,18_ + 1 t_8,19_ + 1.1666666666666665 t_8,20_ + 1.3333333333333335 t_8,21_ + 1.5 t_8,22_ + 1.6666666666666665 t_8,23_ + 1.8333333333333335 t_8,24_ + 2 t_8,25_ - 1 x_8_ = 0
c25: 1 y_9,1_ + 1 y_9,2_ + 1 y_9,3_ + 1 y_9,4_ + 1 y_9,5_ + 1 y_9,6_ + 1 y_9,7_ + 1 y_9,8_ + 1 y_9,9_ + 1 y_9,10_ + 1 y_9,11_ + 1 y_9,12_ + 1 y_9,13_ + 1 y_9,14_ + 1 y_9,15_ + 1 y_9,16_ + 1 y_9,17_ + 1 y_9,18_ + 1 y_9,19_ + 1 y_9,20_ + 1 y_9,21_ + 1 y_9,22_ + 1 y_9,23_ + 1 y_9,24_ = 1
c26: 1 t_9,1_ + 1 t_9,2_ + 1 t_9,3_ + 1 t_9,4_ + 1 t_9,5_ + 1 t_9,6_ + 1 t_9,7_ + 1 t_9,8_ + 1 t_9,9_ + 1 t_9,10_ + 1 t_9,11_ + 1 t_9,12_ + 1 t_9,13_ + 1 t_9,14_ + 1 t_9,15_ + 1 t_9,16_ + 1 t_9,17_ + 1 t_9,18_ + 1 t_9,19_ + 1 t_9,20_ + 1 t_9,21_ + 1 t_9,22_ + 1 t_9,23_ + 1 t_9,24_ + 1 t_9,25_ = 1
c27: -2 t_9,1_ - 1.8333333333333335 t_9,2_ - 1.6666666666666665 t_9,3_ - 1.5 t_9,4_ - 1.3333333333333335 t_9,5_ - 1.1666666666666665 t_9,6_ - 1 t_9,7_ - 0.8333333333333331 t_9,8_ - 0.6666666666666669 t_9,9_ - 0.5 t_9,10_ - 0.33333333333333315 t_9,11_ - 0.16666666666666685 t_9,12_ + 0.16666666666666652 t_9,14_ + 0.3333333333333335 t_9,15_ + 0.5 t_9,16_ + 0.6666666666666665 t_9,17_ + 0.8333333333333335 t_9,18_ + 1 t_9,19_ + 1.1666666666666665 t_9,20_ + 1.3333333333333335 t_9,21_ + 1.5 t_9,22_ + 1.6666666666666665 t_9,23_ + 1.8333333333333335 t_9,24_ + 2 t_9,25_ - 1 x_9_ = 0
c28: 1 y_10,1_ + 1 y_10,2_ + 1 y_10,3_ + 1 y_10,4_ + 1 y_10,5_ + 1 y_10,6_ + 1 y_10,7_ + 1 y_10,8_ + 1 y_10,9_ + 1 y_10,10_ + 1 y_10,11_ + 1 y_10,12_ + 1 y_10,13_ + 1 y_10,14_ + 1 y_10,15_ + 1 y_10,16_ + 1 y_10,17_ + 1 y_10,18_ + 1 y_10,19_ + 1 y_10,20_ + 1 y_10,21_ + 1 y_10,22_ + 1 y_10,23_ + 1 y_10,24_ = 1
c29: 1 t_10,1_ + 1 t_10,2_ + 1 t_10,3_ + 1 t_10,4_ + 1 t_10,5_ + 1 t_10,6_ + 1 t_10,7_ + 1 t_10,8_ + 1 t_10,9_ + 1 t_10,10_ + 1 t_10,11_ + 1 t_10,12_ + 1 t_10,13_ + 1 t_10,14_ + 1 t_10,15_ + 1 t_10,16_ + 1 t_10,17_ + 1 t_10,18_ + 1 t_10,19_ + 1 t_10,20_ + 1 t_10,21_ + 1 t_10,22_ + 1 t_10,23_ + 1 t_10,24_ + 1 t_10,25_ = 1
c30: -2 t_10,1_ - 1.8333333333333335 t_10,2_ - 1.6666666666666665 t_10,3_ - 1.5 t_10,4_ - 1.3333333333333335 t_10,5_ - 1.1666666666666665 t_10,6_ - 1 t_10,7_ - 0.8333333333333331 t_10,8_ - 0.6666666666666669 t_10,9_ - 0.5 t_10,10_ - 0.33333333333333315 t_10,11_ - 0.16666666666666685 t_10,12_ + 0.16666666666666652 t_10,14_ + 0.3333333333333335 t_10,15_ + 0.5 t_10,16_ + 0.6666666666666665 t_10,17_ + 0.8333333333333335 t_10,18_ + 1 t_10,19_ + 1.1666666666666665 t_10,20_ + 1.3333333333333335 t_10,21_ + 1.5 t_10,22_ + 1.6666666666666665 t_10,23_ + 1.8333333333333335 t_10,24_ + 2 t_10,25_ - 1 x_10_ = 0
Bounds
x_1_ <= 2
x_2_ <= 2
x_3_ <= 2
x_4_ <= 2
x_5_ <= 2
x_6_ <= 2
x_7_ <= 2
x_8_ <= 2
x_9_ <= 2
x_10_ <= 2
t_1,1_ >= 0
t_2,1_ >= 0
t_3,1_ >= 0
t_4,1_ >= 0
t_5,1_ >= 0
t_6,1_ >= 0
t_7,1_ >= 0
t_8,1_ >= 0
t_9,1_ >= 0
t_10,1_ >= 0
t_1,2_ >= 0
t_2,2_ >= 0
t_3,2_ >= 0
t_4,2_ >= 0
t_5,2_ >= 0
t_6,2_ >= 0
t_7,2_ >= 0
t_8,2_ >= 0
t_9,2_ >= 0
t_10,2_ >= 0
t_1,3_ >= 0
t_2,3_ >= 0
t_3,3_ >= 0
t_4,3_ >= 0
t_5,3_ >= 0
t_6,3_ >= 0
t_7,3_ >= 0
t_8,3_ >= 0
t_9,3_ >= 0
t_10,3_ >= 0
t_1,4_ >= 0
t_2,4_ >= 0
t_3,4_ >= 0
t_4,4_ >= 0
t_5,4_ >= 0
t_6,4_ >= 0
t_7,4_ >= 0
t_8,4_ >= 0
t_9,4_ >= 0
t_10,4_ >= 0
t_1,5_ >= 0
t_2,5_ >= 0
t_3,5_ >= 0
t_4,5_ >= 0
t_5,5_ >= 0
t_6,5_ >= 0
t_7,5_ >= 0
t_8,5_ >= 0
t_9,5_ >= 0
t_10,5_ >= 0
t_1,6_ >= 0
t_2,6_ >= 0
t_3,6_ >= 0
t_4,6_ >= 0
t_5,6_ >= 0
t_6,6_ >= 0
t_7,6_ >= 0
t_8,6_ >= 0
t_9,6_ >= 0
t_10,6_ >= 0
t_1,7_ >= 0
t_2,7_ >= 0
t_3,7_ >= 0
t_4,7_ >= 0
t_5,7_ >= 0
t_6,7_ >= 0
t_7,7_ >= 0
t_8,7_ >= 0
t_9,7_ >= 0
t_10,7_ >= 0
t_1,8_ >= 0
t_2,8_ >= 0
t_3,8_ >= 0
t_4,8_ >= 0
t_5,8_ >= 0
t_6,8_ >= 0
t_7,8_ >= 0
t_8,8_ >= 0
t_9,8_ >= 0
t_10,8_ >= 0
t_1,9_ >= 0
t_2,9_ >= 0
t_3,9_ >= 0
t_4,9_ >= 0
t_5,9_ >= 0
t_6,9_ >= 0
t_7,9_ >= 0
t_8,9_ >= 0
t_9,9_ >= 0
t_10,9_ >= 0
t_1,10_ >= 0
t_2,10_ >= 0
t_3,10_ >= 0
t_4,10_ >= 0
t_5,10_ >= 0
t_6,10_ >= 0
t_7,10_ >= 0
t_8,10_ >= 0
t_9,10_ >= 0
t_10,10_ >= 0
t_1,11_ >= 0
t_2,11_ >= 0
t_3,11_ >= 0
t_4,11_ >= 0
t_5,11_ >= 0
t_6,11_ >= 0
t_7,11_ >= 0
t_8,11_ >= 0
t_9,11_ >= 0
t_10,11_ >= 0
t_1,12_ >= 0
t_2,12_ >= 0
t_3,12_ >= 0
t_4,12_ >= 0
t_5,12_ >= 0
t_6,12_ >= 0
t_7,12_ >= 0
t_8,12_ >= 0
t_9,12_ >= 0
t_10,12_ >= 0
t_1,13_ >= 0
t_2,13_ >= 0
t_3,13_ >= 0
t_4,13_ >= 0
t_5,13_ >= 0
t_6,13_ >= 0
t_7,13_ >= 0
t_8,13_ >= 0
t_9,13_ >= 0
t_10,13_ >= 0
t_1,14_ >= 0
t_2,14_ >= 0
t_3,14_ >= 0
t_4,14_ >= 0
t_5,14_ >= 0
t_6,14_ >= 0
t_7,14_ >= 0
t_8,14_ >= 0
t_9,14_ >= 0
t_10,14_ >= 0
t_1,15_ >= 0
t_2,15_ >= 0
t_3,15_ >= 0
t_4,15_ >= 0
t_5,15_ >= 0
t_6,15_ >= 0
t_7,15_ >= 0
t_8,15_ >= 0
t_9,15_ >= 0
t_10,15_ >= 0
t_1,16_ >= 0
t_2,16_ >= 0
t_3,16_ >= 0
t_4,16_ >= 0
t_5,16_ >= 0
t_6,16_ >= 0
t_7,16_ >= 0
t_8,16_ >= 0
t_9,16_ >= 0
t_10,16_ >= 0
t_1,17_ >= 0
t_2,17_ >= 0
t_3,17_ >= 0
t_4,17_ >= 0
t_5,17_ >= 0
t_6,17_ >= 0
t_7,17_ >= 0
t_8,17_ >= 0
t_9,17_ >= 0
t_10,17_ >= 0
t_1,18_ >= 0
t_2,18_ >= 0
t_3,18_ >= 0
t_4,18_ >= 0
t_5,18_ >= 0
t_6,18_ >= 0
t_7,18_ >= 0
t_8,18_ >= 0
t_9,18_ >= 0
t_10,18_ >= 0
t_1,19_ >= 0
t_2,19_ >= 0
t_3,19_ >= 0
t_4,19_ >= 0
t_5,19_ >= 0
t_6,19_ >= 0
t_7,19_ >= 0
t_8,19_ >= 0
t_9,19_ >= 0
t_10,19_ >= 0
t_1,20_ >= 0
t_2,20_ >= 0
t_3,20_ >= 0
t_4,20_ >= 0
t_5,20_ >= 0
t_6,20_ >= 0
t_7,20_ >= 0
t_8,20_ >= 0
t_9,20_ >= 0
t_10,20_ >= 0
t_1,21_ >= 0
t_2,21_ >= 0
t_3,21_ >= 0
t_4,21_ >= 0
t_5,21_ >= 0
t_6,21_ >= 0
t_7,21_ >= 0
t_8,21_ >= 0
t_9,21_ >= 0
t_10,21_ >= 0
t_1,22_ >= 0
t_2,22_ >= 0
t_3,22_ >= 0
t_4,22_ >= 0
t_5,22_ >= 0
t_6,22_ >= 0
t_7,22_ >= 0
t_8,22_ >= 0
t_9,22_ >= 0
t_10,22_ >= 0
t_1,23_ >= 0
t_2,23_ >= 0
t_3,23_ >= 0
t_4,23_ >= 0
t_5,23_ >= 0
t_6,23_ >= 0
t_7,23_ >= 0
t_8,23_ >= 0
t_9,23_ >= 0
t_10,23_ >= 0
t_1,24_ >= 0
t_2,24_ >= 0
t_3,24_ >= 0
t_4,24_ >= 0
t_5,24_ >= 0
t_6,24_ >= 0
t_7,24_ >= 0
t_8,24_ >= 0
t_9,24_ >= 0
t_10,24_ >= 0
t_1,25_ >= 0
t_2,25_ >= 0
t_3,25_ >= 0
t_4,25_ >= 0
t_5,25_ >= 0
t_6,25_ >= 0
t_7,25_ >= 0
t_8,25_ >= 0
t_9,25_ >= 0
t_10,25_ >= 0
x_1_ >= -2
x_2_ >= -2
x_3_ >= -2
x_4_ >= -2
x_5_ >= -2
x_6_ >= -2
x_7_ >= -2
x_8_ >= -2
x_9_ >= -2
x_10_ >= -2
Binary
y_1,1_
y_2,1_
y_3,1_
y_4,1_
y_5,1_
y_6,1_
y_7,1_
y_8,1_
y_9,1_
y_10,1_
y_1,2_
y_2,2_
y_3,2_
y_4,2_
y_5,2_
y_6,2_
y_7,2_
y_8,2_
y_9,2_
y_10,2_
y_1,3_
y_2,3_
y_3,3_
y_4,3_
y_5,3_
y_6,3_
y_7,3_
y_8,3_
y_9,3_
y_10,3_
y_1,4_
y_2,4_
y_3,4_
y_4,4_
y_5,4_
y_6,4_
y_7,4_
y_8,4_
y_9,4_
y_10,4_
y_1,5_
y_2,5_
y_3,5_
y_4,5_
y_5,5_
y_6,5_
y_7,5_
y_8,5_
y_9,5_
y_10,5_
y_1,6_
y_2,6_
y_3,6_
y_4,6_
y_5,6_
y_6,6_
y_7,6_
y_8,6_
y_9,6_
y_10,6_
y_1,7_
y_2,7_
y_3,7_
y_4,7_
y_5,7_
y_6,7_
y_7,7_
y_8,7_
y_9,7_
y_10,7_
y_1,8_
y_2,8_
y_3,8_
y_4,8_
y_5,8_
y_6,8_
y_7,8_
y_8,8_
y_9,8_
y_10,8_
y_1,9_
y_2,9_
y_3,9_
y_4,9_
y_5,9_
y_6,9_
y_7,9_
y_8,9_
y_9,9_
y_10,9_
y_1,10_
y_2,10_
y_3,10_
y_4,10_
y_5,10_
y_6,10_
y_7,10_
y_8,10_
y_9,10_
y_10,10_
y_1,11_
y_2,11_
y_3,11_
y_4,11_
y_5,11_
y_6,11_
y_7,11_
y_8,11_
y_9,11_
y_10,11_
y_1,12_
y_2,12_
y_3,12_
y_4,12_
y_5,12_
y_6,12_
y_7,12_
y_8,12_
y_9,12_
y_10,12_
y_1,13_
y_2,13_
y_3,13_
y_4,13_
y_5,13_
y_6,13_
y_7,13_
y_8,13_
y_9,13_
y_10,13_
y_1,14_
y_2,14_
y_3,14_
y_4,14_
y_5,14_
y_6,14_
y_7,14_
y_8,14_
y_9,14_
y_10,14_
y_1,15_
y_2,15_
y_3,15_
y_4,15_
y_5,15_
y_6,15_
y_7,15_
y_8,15_
y_9,15_
y_10,15_
y_1,16_
y_2,16_
y_3,16_
y_4,16_
y_5,16_
y_6,16_
y_7,16_
y_8,16_
y_9,16_
y_10,16_
y_1,17_
y_2,17_
y_3,17_
y_4,17_
y_5,17_
y_6,17_
y_7,17_
y_8,17_
y_9,17_
y_10,17_
y_1,18_
y_2,18_
y_3,18_
y_4,18_
y_5,18_
y_6,18_
y_7,18_
y_8,18_
y_9,18_
y_10,18_
y_1,19_
y_2,19_
y_3,19_
y_4,19_
y_5,19_
y_6,19_
y_7,19_
y_8,19_
y_9,19_
y_10,19_
y_1,20_
y_2,20_
y_3,20_
y_4,20_
y_5,20_
y_6,20_
y_7,20_
y_8,20_
y_9,20_
y_10,20_
y_1,21_
y_2,21_
y_3,21_
y_4,21_
y_5,21_
y_6,21_
y_7,21_
y_8,21_
y_9,21_
y_10,21_
y_1,22_
y_2,22_
y_3,22_
y_4,22_
y_5,22_
y_6,22_
y_7,22_
y_8,22_
y_9,22_
y_10,22_
y_1,23_
y_2,23_
y_3,23_
y_4,23_
y_5,23_
y_6,23_
y_7,23_
y_8,23_
y_9,23_
y_10,23_
y_1,24_
y_2,24_
y_3,24_
y_4,24_
y_5,24_
y_6,24_
y_7,24_
y_8,24_
y_9,24_
y_10,24_
End
